WARNING: for repeatability, setting FPU to use double precision
============================[ Problem Statistics ]=============================
|                                                                             |
|  Number of variables:         33791                                         |
|  Number of clauses:          785696                                         |
|  Parse time:                   0.18 s                                       |
|  Eliminated clauses:           0.07 Mb                                      |
|  Simplification time:          0.31 s                                       |
|                                                                             |
============================[ Search Statistics ]==============================
| Conflicts |          ORIGINAL         |          LEARNT          | Progress |
|           |    Vars  Clauses Literals |    Limit  Clauses Lit/Cl |          |
===============================================================================
|       100 |    4630    47125   154244 |    17279      100     49 | 69.344 % |
|       250 |    4630    47125   154244 |    19007      250     41 | 69.344 % |
|       475 |    4630    47125   154244 |    20907      475     35 | 69.344 % |
|       812 |    4630    47125   154244 |    22998      812     35 | 69.344 % |
|      1318 |    4630    47125   154244 |    25298     1318     41 | 69.344 % |
|      2077 |    4630    47125   154244 |    27828     2077     42 | 69.344 % |
|      3216 |    4630    47125   154244 |    30611     3216     44 | 69.344 % |
|      4924 |    4630    47125   154244 |    33672     4924     55 | 69.344 % |
|      7486 |    4630    47125   154244 |    37039     7486     66 | 69.344 % |
|     11330 |    4630    47125   154244 |    40743    11330     68 | 69.344 % |
===============================================================================
restarts              : 61
conflicts             : 14096          (19674 /sec)
decisions             : 104826         (0.00 % random) (146304 /sec)
propagations          : 1137320        (1587345 /sec)
conflict literals     : 987489         (5.47 % deleted)
Memory used           : 77.00 MB
CPU time              : 0.716492 s

SATISFIABLE
